c defined variables: 25 26 27 28 29 30 31 32 33 34 35 36 37 38 39 40 41 42 43 44 45 46 47 48 49 50 51 52 53 54 55 56 57 58 59 60 61 62 63 66 67 68 69 70 71 72 73 74 75 76 77 78 79 80 81 82 83 84 85 86 87 88 89 90 91 93 94 95 96 97 98 99 100 101 102 103 104 105 106 107 108 109 110 111 112 113 114 115 116 117 118 119 120 121 122 123 124 125 126 127 128 129 130 131 132 133 134 135 136 137 138 139 140 141 142 143 144 145 146 147 148 149 150 151 152 153 154 155 156 157 158 159 160 161 162 163 164 165 166 167 168 169 170 
p cnf 747 1134
a 1 3 4 5 6 7 8 9 10 11 12 13 14 15 16 17 18 19 20 21 22 0
e 64 65 92 25 26 27 28 29 30 31 32 33 34 35 36 37 38 39 40 41 42 43 44 45 46 47 48 49 50 51 52 53 54 55 56 57 58 59 60 61 62 63 66 67 68 69 70 71 72 73 74 75 76 77 78 79 80 81 82 83 84 85 86 87 88 89 90 91 93 94 95 96 97 98 99 100 101 102 103 104 105 106 107 108 109 110 111 112 113 114 115 116 117 118 119 120 121 122 123 124 125 126 127 128 129 130 131 132 133 134 135 136 137 138 139 140 141 142 143 144 145 146 147 148 149 150 151 152 153 154 155 156 157 158 159 160 161 162 163 164 165 166 167 168 169 170 611 612 613 614 615 616 617 618 619 620 621 622 623 624 625 626 627 628 629 630 631 632 633 634 635 636 637 638 639 640 641 642 643 644 645 646 647 648 649 650 651 652 653 654 655 656 657 658 659 660 661 662 663 664 665 666 667 668 669 670 671 672 673 674 675 676 677 678 679 680 681 682 683 684 685 686 687 688 689 690 691 692 693 694 695 696 697 698 699 700 701 702 703 704 705 706 707 708 709 710 711 712 713 714 715 716 717 718 719 720 721 722 723 724 725 726 727 728 729 730 731 732 733 734 735 736 737 738 739 740 741 742 743 744 745 746 747 0
d 2 1 3 4 5 6 7 8 9 10 11 12 0
d 23 3 4 5 6 7 8 9 10 11 12 0
d 24 13 14 15 16 17 18 19 20 21 22 0
612 -25 0
-612 25 0
613 -26 0
-613 26 0
614 -27 0
-614 27 0
615 -28 0
-615 28 0
616 -29 0
-616 29 0
617 -30 0
-617 30 0
618 -31 0
-618 31 0
619 -32 0
-619 32 0
620 -33 0
-620 33 0
621 -34 0
-621 34 0
622 -35 0
-622 35 0
623 -36 0
-623 36 0
624 -37 0
-624 37 0
625 -38 0
-625 38 0
626 -39 0
-626 39 0
627 -40 0
-627 40 0
628 -41 0
-628 41 0
629 -42 0
-629 42 0
630 -43 0
-630 43 0
631 -44 0
-631 44 0
632 -45 0
-632 45 0
633 -46 0
-633 46 0
634 -47 0
-634 47 0
635 -48 0
-635 48 0
636 -49 0
-636 49 0
637 -50 0
-637 50 0
638 -51 0
-638 51 0
639 -52 0
-639 52 0
640 -53 0
-640 53 0
641 -54 0
-641 54 0
642 -55 0
-642 55 0
643 -56 0
-643 56 0
644 -57 0
-644 57 0
645 -58 0
-645 58 0
646 -59 0
-646 59 0
647 -60 0
-647 60 0
648 -61 0
-648 61 0
649 -62 0
-649 62 0
650 -63 0
-650 63 0
651 -66 0
-651 66 0
-611 -67 0
611 67 0
652 -68 0
-652 68 0
653 -69 0
-653 69 0
654 -70 0
-654 70 0
655 -71 0
-655 71 0
656 -72 0
-656 72 0
657 -73 0
-657 73 0
658 -74 0
-658 74 0
659 -75 0
-659 75 0
660 -76 0
-660 76 0
661 -77 0
-661 77 0
662 -78 0
-662 78 0
663 -79 0
-663 79 0
664 -80 0
-664 80 0
665 -81 0
-665 81 0
666 -82 0
-666 82 0
667 -83 0
-667 83 0
668 -84 0
-668 84 0
669 -85 0
-669 85 0
670 -86 0
-670 86 0
671 -87 0
-671 87 0
672 -88 0
-672 88 0
673 -89 0
-673 89 0
674 -90 0
-674 90 0
675 -91 0
-675 91 0
676 -93 0
-676 93 0
677 -94 0
-677 94 0
678 -95 0
-678 95 0
679 -96 0
-679 96 0
680 -97 0
-680 97 0
681 -98 0
-681 98 0
682 -99 0
-682 99 0
683 -100 0
-683 100 0
684 -101 0
-684 101 0
-685 -102 0
685 102 0
686 -103 0
-686 103 0
687 -104 0
-687 104 0
688 -105 0
-688 105 0
689 -106 0
-689 106 0
690 -107 0
-690 107 0
691 -108 0
-691 108 0
692 -109 0
-692 109 0
693 -110 0
-693 110 0
694 -111 0
-694 111 0
695 -112 0
-695 112 0
696 -113 0
-696 113 0
697 -114 0
-697 114 0
698 -115 0
-698 115 0
699 -116 0
-699 116 0
700 -117 0
-700 117 0
701 -118 0
-701 118 0
702 -119 0
-702 119 0
703 -120 0
-703 120 0
704 -121 0
-704 121 0
705 -122 0
-705 122 0
706 -123 0
-706 123 0
707 -124 0
-707 124 0
708 -125 0
-708 125 0
709 -126 0
-709 126 0
710 -127 0
-710 127 0
711 -128 0
-711 128 0
712 -129 0
-712 129 0
713 -130 0
-713 130 0
714 -131 0
-714 131 0
715 -132 0
-715 132 0
716 -133 0
-716 133 0
717 -134 0
-717 134 0
718 -135 0
-718 135 0
719 -136 0
-719 136 0
720 -137 0
-720 137 0
721 -138 0
-721 138 0
722 -139 0
-722 139 0
723 -140 0
-723 140 0
724 -141 0
-724 141 0
725 -142 0
-725 142 0
726 -143 0
-726 143 0
727 -144 0
-727 144 0
728 -145 0
-728 145 0
729 -146 0
-729 146 0
730 -147 0
-730 147 0
731 -148 0
-731 148 0
732 -149 0
-732 149 0
733 -150 0
-733 150 0
734 -151 0
-734 151 0
735 -152 0
-735 152 0
736 -153 0
-736 153 0
737 -154 0
-737 154 0
-611 -155 0
611 155 0
738 -156 0
-738 156 0
-611 -157 0
611 157 0
739 -158 0
-739 158 0
740 -159 0
-740 159 0
741 -160 0
-741 160 0
742 -161 0
-742 161 0
743 -162 0
-743 162 0
744 -163 0
-744 163 0
745 -164 0
-745 164 0
746 -165 0
-746 165 0
747 -166 0
-747 166 0
-611 -167 0
611 167 0
611 -168 0
-611 168 0
611 -169 0
-611 169 0
611 -170 0
-611 170 0
-25 -21 0
-25 11 0
25 21 -11 0
-26 21 0
-26 -11 0
26 -21 11 0
-27 -25 0
-27 -26 0
27 25 26 0
-28 -22 0
-28 12 0
28 22 -12 0
-29 22 0
-29 -12 0
29 -22 12 0
-30 -28 0
-30 -29 0
30 28 29 0
-31 27 0
-31 30 0
31 -27 -30 0
-32 -13 0
-32 3 0
32 13 -3 0
-33 13 0
-33 -3 0
33 -13 3 0
-34 -32 0
-34 -33 0
34 32 33 0
-35 -14 0
-35 4 0
35 14 -4 0
-36 14 0
-36 -4 0
36 -14 4 0
-37 -35 0
-37 -36 0
37 35 36 0
-38 34 0
-38 37 0
38 -34 -37 0
-39 -15 0
-39 5 0
39 15 -5 0
-40 15 0
-40 -5 0
40 -15 5 0
-41 -39 0
-41 -40 0
41 39 40 0
-42 -16 0
-42 6 0
42 16 -6 0
-43 16 0
-43 -6 0
43 -16 6 0
-44 -42 0
-44 -43 0
44 42 43 0
-45 41 0
-45 44 0
45 -41 -44 0
-46 38 0
-46 45 0
46 -38 -45 0
-47 -17 0
-47 7 0
47 17 -7 0
-48 17 0
-48 -7 0
48 -17 7 0
-49 -47 0
-49 -48 0
49 47 48 0
-50 -18 0
-50 8 0
50 18 -8 0
-51 18 0
-51 -8 0
51 -18 8 0
-52 -50 0
-52 -51 0
52 50 51 0
-53 49 0
-53 52 0
53 -49 -52 0
-54 -19 0
-54 9 0
54 19 -9 0
-55 19 0
-55 -9 0
55 -19 9 0
-56 -54 0
-56 -55 0
56 54 55 0
-57 -20 0
-57 10 0
57 20 -10 0
-58 20 0
-58 -10 0
58 -20 10 0
-59 -57 0
-59 -58 0
59 57 58 0
-60 56 0
-60 59 0
60 -56 -59 0
-61 53 0
-61 60 0
61 -53 -60 0
-62 46 0
-62 61 0
62 -46 -61 0
-63 31 0
-63 62 0
63 -31 -62 0
-64 24 0
-64 -23 0
64 -24 23 0
-65 -24 0
-65 23 0
65 24 -23 0
-66 -64 0
-66 -65 0
66 64 65 0
-67 63 0
-67 -66 0
67 -63 66 0
-68 11 0
-68 3 0
68 -11 -3 0
-69 5 0
-69 3 0
69 -5 -3 0
-70 4 0
-70 69 0
70 -4 -69 0
-71 6 0
-71 3 0
71 -6 -3 0
-72 70 0
-72 71 0
72 -70 -71 0
-73 7 0
-73 3 0
73 -7 -3 0
-74 72 0
-74 73 0
74 -72 -73 0
-75 8 0
-75 3 0
75 -8 -3 0
-76 74 0
-76 75 0
76 -74 -75 0
-77 9 0
-77 3 0
77 -9 -3 0
-78 76 0
-78 77 0
78 -76 -77 0
-79 10 0
-79 3 0
79 -10 -3 0
-80 78 0
-80 79 0
80 -78 -79 0
-81 -1 0
-81 80 0
81 1 -80 0
-82 -68 0
-82 81 0
82 68 -81 0
-83 68 0
-83 -81 0
83 -68 81 0
-84 -82 0
-84 -83 0
84 82 83 0
-85 -21 0
-85 -84 0
85 21 84 0
-86 21 0
-86 84 0
86 -21 -84 0
-87 -85 0
-87 -86 0
87 85 86 0
-88 12 0
-88 3 0
88 -12 -3 0
-89 80 0
-89 68 0
89 -80 -68 0
-90 -1 0
-90 89 0
90 1 -89 0
-91 -88 0
-91 -90 0
91 88 90 0
-92 -2 0
-92 -88 0
92 2 88 0
-93 90 0
-93 -92 0
93 -90 92 0
-94 -91 0
-94 -93 0
94 91 93 0
-95 -22 0
-95 94 0
95 22 -94 0
-96 22 0
-96 -94 0
96 -22 94 0
-97 -95 0
-97 -96 0
97 95 96 0
-98 87 0
-98 97 0
98 -87 -97 0
-99 4 0
-99 3 0
99 -4 -3 0
-100 -1 0
-100 99 0
100 1 -99 0
-101 1 0
-101 -99 0
101 -1 99 0
102 -100 0
102 -101 0
-102 100 101 0
-103 -14 0
-103 -102 0
103 14 102 0
-104 14 0
-104 102 0
104 -14 -102 0
-105 -103 0
-105 -104 0
105 103 104 0
-106 13 0
-106 105 0
106 -13 -105 0
-107 -69 0
-107 100 0
107 69 -100 0
-108 69 0
-108 -100 0
108 -69 100 0
-109 -107 0
-109 -108 0
109 107 108 0
-110 -15 0
-110 -109 0
110 15 109 0
-111 15 0
-111 109 0
111 -15 -109 0
-112 -110 0
-112 -111 0
112 110 111 0
-113 -1 0
-113 70 0
113 1 -70 0
-114 -71 0
-114 113 0
114 71 -113 0
-115 71 0
-115 -113 0
115 -71 113 0
-116 -114 0
-116 -115 0
116 114 115 0
-117 -16 0
-117 -116 0
117 16 116 0
-118 16 0
-118 116 0
118 -16 -116 0
-119 -117 0
-119 -118 0
119 117 118 0
-120 112 0
-120 119 0
120 -112 -119 0
-121 106 0
-121 120 0
121 -106 -120 0
-122 -1 0
-122 72 0
122 1 -72 0
-123 -73 0
-123 122 0
123 73 -122 0
-124 73 0
-124 -122 0
124 -73 122 0
-125 -123 0
-125 -124 0
125 123 124 0
-126 -17 0
-126 -125 0
126 17 125 0
-127 17 0
-127 125 0
127 -17 -125 0
-128 -126 0
-128 -127 0
128 126 127 0
-129 -1 0
-129 74 0
129 1 -74 0
-130 -75 0
-130 129 0
130 75 -129 0
-131 75 0
-131 -129 0
131 -75 129 0
-132 -130 0
-132 -131 0
132 130 131 0
-133 -18 0
-133 -132 0
133 18 132 0
-134 18 0
-134 132 0
134 -18 -132 0
-135 -133 0
-135 -134 0
135 133 134 0
-136 128 0
-136 135 0
136 -128 -135 0
-137 -1 0
-137 76 0
137 1 -76 0
-138 -77 0
-138 137 0
138 77 -137 0
-139 77 0
-139 -137 0
139 -77 137 0
-140 -138 0
-140 -139 0
140 138 139 0
-141 -19 0
-141 -140 0
141 19 140 0
-142 19 0
-142 140 0
142 -19 -140 0
-143 -141 0
-143 -142 0
143 141 142 0
-144 -1 0
-144 78 0
144 1 -78 0
-145 -79 0
-145 144 0
145 79 -144 0
-146 79 0
-146 -144 0
146 -79 144 0
-147 -145 0
-147 -146 0
147 145 146 0
-148 -20 0
-148 -147 0
148 20 147 0
-149 20 0
-149 147 0
149 -20 -147 0
-150 -148 0
-150 -149 0
150 148 149 0
-151 143 0
-151 150 0
151 -143 -150 0
-152 136 0
-152 151 0
152 -136 -151 0
-153 121 0
-153 152 0
153 -121 -152 0
-154 98 0
-154 153 0
154 -98 -153 0
-155 154 0
-155 65 0
155 -154 -65 0
-156 89 0
-156 88 0
156 -89 -88 0
-157 23 0
-157 156 0
157 -23 -156 0
-158 -12 0
-158 -11 0
158 12 11 0
-159 -4 0
-159 -3 0
159 4 3 0
-160 -6 0
-160 -5 0
160 6 5 0
-161 159 0
-161 160 0
161 -159 -160 0
-162 -8 0
-162 -7 0
162 8 7 0
-163 -10 0
-163 -9 0
163 10 9 0
-164 162 0
-164 163 0
164 -162 -163 0
-165 161 0
-165 164 0
165 -161 -164 0
-166 158 0
-166 165 0
166 -158 -165 0
-167 -23 0
-167 166 0
167 23 -166 0
-168 -157 0
-168 -167 0
168 157 167 0
-169 -155 0
-169 168 0
169 155 -168 0
-170 -67 0
-170 169 0
170 67 -169 0
170 0
611 0
11 -612 0
-21 -612 0
-11 21 612 0
-11 -613 0
21 -613 0
11 -21 613 0
-25 -614 0
-26 -614 0
25 26 614 0
12 -615 0
-22 -615 0
-12 22 615 0
-12 -616 0
22 -616 0
12 -22 616 0
-28 -617 0
-29 -617 0
28 29 617 0
27 -618 0
30 -618 0
-27 -30 618 0
3 -619 0
-13 -619 0
-3 13 619 0
-3 -620 0
13 -620 0
3 -13 620 0
-32 -621 0
-33 -621 0
32 33 621 0
4 -622 0
-14 -622 0
-4 14 622 0
-4 -623 0
14 -623 0
4 -14 623 0
-35 -624 0
-36 -624 0
35 36 624 0
34 -625 0
37 -625 0
-34 -37 625 0
5 -626 0
-15 -626 0
-5 15 626 0
-5 -627 0
15 -627 0
5 -15 627 0
-39 -628 0
-40 -628 0
39 40 628 0
6 -629 0
-16 -629 0
-6 16 629 0
-6 -630 0
16 -630 0
6 -16 630 0
-42 -631 0
-43 -631 0
42 43 631 0
41 -632 0
44 -632 0
-41 -44 632 0
38 -633 0
45 -633 0
-38 -45 633 0
7 -634 0
-17 -634 0
-7 17 634 0
-7 -635 0
17 -635 0
7 -17 635 0
-47 -636 0
-48 -636 0
47 48 636 0
8 -637 0
-18 -637 0
-8 18 637 0
-8 -638 0
18 -638 0
8 -18 638 0
-50 -639 0
-51 -639 0
50 51 639 0
49 -640 0
52 -640 0
-49 -52 640 0
9 -641 0
-19 -641 0
-9 19 641 0
-9 -642 0
19 -642 0
9 -19 642 0
-54 -643 0
-55 -643 0
54 55 643 0
10 -644 0
-20 -644 0
-10 20 644 0
-10 -645 0
20 -645 0
10 -20 645 0
-57 -646 0
-58 -646 0
57 58 646 0
56 -647 0
59 -647 0
-56 -59 647 0
53 -648 0
60 -648 0
-53 -60 648 0
46 -649 0
61 -649 0
-46 -61 649 0
31 -650 0
62 -650 0
-31 -62 650 0
-64 -651 0
-65 -651 0
64 65 651 0
3 -652 0
11 -652 0
-3 -11 652 0
3 -653 0
5 -653 0
-3 -5 653 0
4 -654 0
69 -654 0
-4 -69 654 0
3 -655 0
6 -655 0
-3 -6 655 0
70 -656 0
71 -656 0
-70 -71 656 0
3 -657 0
7 -657 0
-3 -7 657 0
72 -658 0
73 -658 0
-72 -73 658 0
3 -659 0
8 -659 0
-3 -8 659 0
74 -660 0
75 -660 0
-74 -75 660 0
3 -661 0
9 -661 0
-3 -9 661 0
76 -662 0
77 -662 0
-76 -77 662 0
3 -663 0
10 -663 0
-3 -10 663 0
78 -664 0
79 -664 0
-78 -79 664 0
-1 -665 0
80 -665 0
1 -80 665 0
-68 -666 0
81 -666 0
68 -81 666 0
68 -667 0
-81 -667 0
-68 81 667 0
-82 -668 0
-83 -668 0
82 83 668 0
-21 -669 0
-84 -669 0
21 84 669 0
21 -670 0
84 -670 0
-21 -84 670 0
-85 -671 0
-86 -671 0
85 86 671 0
3 -672 0
12 -672 0
-3 -12 672 0
68 -673 0
80 -673 0
-68 -80 673 0
-1 -674 0
89 -674 0
1 -89 674 0
-88 -675 0
-90 -675 0
88 90 675 0
90 -676 0
-92 -676 0
-90 92 676 0
-91 -677 0
-93 -677 0
91 93 677 0
-22 -678 0
94 -678 0
22 -94 678 0
22 -679 0
-94 -679 0
-22 94 679 0
-95 -680 0
-96 -680 0
95 96 680 0
87 -681 0
97 -681 0
-87 -97 681 0
3 -682 0
4 -682 0
-3 -4 682 0
-1 -683 0
99 -683 0
1 -99 683 0
1 -684 0
-99 -684 0
-1 99 684 0
-100 -685 0
-101 -685 0
100 101 685 0
-14 -686 0
-102 -686 0
14 102 686 0
14 -687 0
102 -687 0
-14 -102 687 0
-103 -688 0
-104 -688 0
103 104 688 0
13 -689 0
105 -689 0
-13 -105 689 0
-69 -690 0
100 -690 0
69 -100 690 0
69 -691 0
-100 -691 0
-69 100 691 0
-107 -692 0
-108 -692 0
107 108 692 0
-15 -693 0
-109 -693 0
15 109 693 0
15 -694 0
109 -694 0
-15 -109 694 0
-110 -695 0
-111 -695 0
110 111 695 0
-1 -696 0
70 -696 0
1 -70 696 0
-71 -697 0
113 -697 0
71 -113 697 0
71 -698 0
-113 -698 0
-71 113 698 0
-114 -699 0
-115 -699 0
114 115 699 0
-16 -700 0
-116 -700 0
16 116 700 0
16 -701 0
116 -701 0
-16 -116 701 0
-117 -702 0
-118 -702 0
117 118 702 0
112 -703 0
119 -703 0
-112 -119 703 0
106 -704 0
120 -704 0
-106 -120 704 0
-1 -705 0
72 -705 0
1 -72 705 0
-73 -706 0
122 -706 0
73 -122 706 0
73 -707 0
-122 -707 0
-73 122 707 0
-123 -708 0
-124 -708 0
123 124 708 0
-17 -709 0
-125 -709 0
17 125 709 0
17 -710 0
125 -710 0
-17 -125 710 0
-126 -711 0
-127 -711 0
126 127 711 0
-1 -712 0
74 -712 0
1 -74 712 0
-75 -713 0
129 -713 0
75 -129 713 0
75 -714 0
-129 -714 0
-75 129 714 0
-130 -715 0
-131 -715 0
130 131 715 0
-18 -716 0
-132 -716 0
18 132 716 0
18 -717 0
132 -717 0
-18 -132 717 0
-133 -718 0
-134 -718 0
133 134 718 0
128 -719 0
135 -719 0
-128 -135 719 0
-1 -720 0
76 -720 0
1 -76 720 0
-77 -721 0
137 -721 0
77 -137 721 0
77 -722 0
-137 -722 0
-77 137 722 0
-138 -723 0
-139 -723 0
138 139 723 0
-19 -724 0
-140 -724 0
19 140 724 0
19 -725 0
140 -725 0
-19 -140 725 0
-141 -726 0
-142 -726 0
141 142 726 0
-1 -727 0
78 -727 0
1 -78 727 0
-79 -728 0
144 -728 0
79 -144 728 0
79 -729 0
-144 -729 0
-79 144 729 0
-145 -730 0
-146 -730 0
145 146 730 0
-20 -731 0
-147 -731 0
20 147 731 0
20 -732 0
147 -732 0
-20 -147 732 0
-148 -733 0
-149 -733 0
148 149 733 0
143 -734 0
150 -734 0
-143 -150 734 0
136 -735 0
151 -735 0
-136 -151 735 0
121 -736 0
152 -736 0
-121 -152 736 0
98 -737 0
153 -737 0
-98 -153 737 0
88 -738 0
89 -738 0
-88 -89 738 0
-11 -739 0
-12 -739 0
11 12 739 0
-3 -740 0
-4 -740 0
3 4 740 0
-5 -741 0
-6 -741 0
5 6 741 0
159 -742 0
160 -742 0
-159 -160 742 0
-7 -743 0
-8 -743 0
7 8 743 0
-9 -744 0
-10 -744 0
9 10 744 0
162 -745 0
163 -745 0
-162 -163 745 0
161 -746 0
164 -746 0
-161 -164 746 0
158 -747 0
165 -747 0
-158 -165 747 0
